p cnf 405 1127
1 0
2 0
3 0
4 0
5 0
6 0
7 0
8 0
9 0
10 0
-11 0
-12 0
-13 0
-14 0
-15 0
-16 0
-17 0
-18 0
-19 0
-20 0
-21 22 0
-23 22 0
-24 22 0
-25 22 0
-26 22 0
22 -27 0
22 -28 0
-29 22 0
-30 22 0
22 -31 0
22 -32 0
22 -33 0
-34 22 0
-35 22 0
36 0
1 -22 0
-1 22 0
-23 37 0
-24 37 0
-25 37 0
-26 37 0
-27 37 0
-28 37 0
-29 37 0
-30 37 0
-31 37 0
-32 37 0
-33 37 0
-34 37 0
-35 37 0
38 0
39 -37 0
-39 37 0
-24 40 0
-25 40 0
-26 40 0
-27 40 0
-28 40 0
-29 40 0
-30 40 0
-31 40 0
-32 40 0
-33 40 0
-34 40 0
-35 40 0
41 0
42 -40 0
-42 40 0
-25 43 0
-26 43 0
-27 43 0
-28 43 0
-29 43 0
-30 43 0
-31 43 0
-32 43 0
-33 43 0
-34 43 0
-35 43 0
44 0
45 -43 0
-45 43 0
-26 46 0
-27 46 0
-28 46 0
-29 46 0
-30 46 0
-31 46 0
-32 46 0
-33 46 0
-34 46 0
-35 46 0
47 0
48 -46 0
-48 46 0
-27 49 0
-28 49 0
-29 49 0
-30 49 0
-31 49 0
-32 49 0
-33 49 0
-34 49 0
-35 49 0
50 0
51 -49 0
-51 49 0
-28 52 0
-29 52 0
-30 52 0
-31 52 0
-32 52 0
-33 52 0
-34 52 0
-35 52 0
53 0
54 -52 0
-54 52 0
55 -52 0
-55 52 0
56 -52 0
-56 52 0
57 -52 0
-57 52 0
58 -52 0
-58 52 0
59 -52 0
-59 52 0
60 -52 0
-60 52 0
61 -52 0
-61 52 0
62 -63 0
-64 62 0
-65 62 0
62 -66 0
-67 62 0
62 -68 0
62 -69 0
62 -70 0
62 -71 0
-72 62 0
73 0
2 -62 0
-2 62 0
-64 74 0
-65 74 0
-66 74 0
-67 74 0
-68 74 0
-69 74 0
-70 74 0
-71 74 0
-72 74 0
75 0
76 -74 0
-76 74 0
-65 77 0
-66 77 0
-67 77 0
-68 77 0
-69 77 0
-70 77 0
-71 77 0
-72 77 0
78 0
79 -77 0
-79 77 0
-66 80 0
-67 80 0
-68 80 0
-69 80 0
-70 80 0
-71 80 0
-72 80 0
81 0
82 -80 0
-82 80 0
-67 83 0
-68 83 0
-69 83 0
-70 83 0
-71 83 0
-72 83 0
84 0
85 -83 0
-85 83 0
86 -83 0
-86 83 0
87 -83 0
-87 83 0
88 -83 0
-88 83 0
89 -83 0
-89 83 0
90 -83 0
-90 83 0
-91 92 0
-93 92 0
-94 92 0
-95 92 0
-96 92 0
92 -97 0
-98 92 0
-99 92 0
-100 92 0
-101 92 0
92 -102 0
92 -103 0
104 0
3 -92 0
-3 92 0
-93 105 0
-94 105 0
-95 105 0
-96 105 0
-97 105 0
-98 105 0
-99 105 0
-100 105 0
-101 105 0
-102 105 0
-103 105 0
106 0
107 -105 0
-107 105 0
-94 108 0
-95 108 0
-96 108 0
-97 108 0
-98 108 0
-99 108 0
-100 108 0
-101 108 0
-102 108 0
-103 108 0
109 0
110 -108 0
-110 108 0
-95 111 0
-96 111 0
-97 111 0
-98 111 0
-99 111 0
-100 111 0
-101 111 0
-102 111 0
-103 111 0
112 0
113 -111 0
-113 111 0
-96 114 0
-97 114 0
-98 114 0
-99 114 0
-100 114 0
-101 114 0
-102 114 0
-103 114 0
115 0
116 -114 0
-116 114 0
117 -114 0
-117 114 0
118 -114 0
-118 114 0
119 -114 0
-119 114 0
120 -114 0
-120 114 0
121 -114 0
-121 114 0
122 -114 0
-122 114 0
123 -114 0
-123 114 0
-124 125 0
-126 125 0
125 -127 0
-128 125 0
-129 125 0
125 -130 0
-131 125 0
125 -132 0
-133 125 0
-134 125 0
125 -135 0
125 -136 0
125 -137 0
125 -138 0
139 0
4 -125 0
-4 125 0
-126 140 0
-127 140 0
-128 140 0
-129 140 0
-130 140 0
-131 140 0
-132 140 0
-133 140 0
-134 140 0
-135 140 0
-136 140 0
-137 140 0
-138 140 0
141 0
142 -140 0
-142 140 0
-127 143 0
-128 143 0
-129 143 0
-130 143 0
-131 143 0
-132 143 0
-133 143 0
-134 143 0
-135 143 0
-136 143 0
-137 143 0
-138 143 0
144 0
145 -143 0
-145 143 0
-128 146 0
-129 146 0
-130 146 0
-131 146 0
-132 146 0
-133 146 0
-134 146 0
-135 146 0
-136 146 0
-137 146 0
-138 146 0
147 0
148 -146 0
-148 146 0
-129 149 0
-130 149 0
-131 149 0
-132 149 0
-133 149 0
-134 149 0
-135 149 0
-136 149 0
-137 149 0
-138 149 0
150 0
151 -149 0
-151 149 0
-130 152 0
-131 152 0
-132 152 0
-133 152 0
-134 152 0
-135 152 0
-136 152 0
-137 152 0
-138 152 0
153 0
154 -152 0
-154 152 0
-131 155 0
-132 155 0
-133 155 0
-134 155 0
-135 155 0
-136 155 0
-137 155 0
-138 155 0
156 0
157 -155 0
-157 155 0
-132 158 0
-133 158 0
-134 158 0
-135 158 0
-136 158 0
-137 158 0
-138 158 0
159 0
160 -158 0
-160 158 0
161 -158 0
-161 158 0
162 -158 0
-162 158 0
163 -158 0
-163 158 0
164 -158 0
-164 158 0
165 -158 0
-165 158 0
166 -158 0
-166 158 0
-167 168 0
-169 168 0
-170 168 0
168 -171 0
-172 168 0
168 -173 0
168 -174 0
-175 168 0
168 -176 0
-177 168 0
-178 168 0
179 0
5 -168 0
-5 168 0
-169 180 0
-170 180 0
-171 180 0
-172 180 0
-173 180 0
-174 180 0
-175 180 0
-176 180 0
-177 180 0
-178 180 0
181 0
182 -180 0
-182 180 0
-170 183 0
-171 183 0
-172 183 0
-173 183 0
-174 183 0
-175 183 0
-176 183 0
-177 183 0
-178 183 0
184 0
185 -183 0
-185 183 0
-171 186 0
-172 186 0
-173 186 0
-174 186 0
-175 186 0
-176 186 0
-177 186 0
-178 186 0
187 0
188 -186 0
-188 186 0
-172 189 0
-173 189 0
-174 189 0
-175 189 0
-176 189 0
-177 189 0
-178 189 0
190 0
191 -189 0
-191 189 0
192 -189 0
-192 189 0
193 -189 0
-193 189 0
194 -189 0
-194 189 0
195 -189 0
-195 189 0
196 -189 0
-196 189 0
197 -189 0
-197 189 0
-198 199 0
-200 199 0
-201 199 0
-202 199 0
-203 199 0
199 -204 0
-205 199 0
-206 199 0
-207 199 0
199 -208 0
199 -209 0
210 0
6 -199 0
-6 199 0
-200 211 0
-201 211 0
-202 211 0
-203 211 0
-204 211 0
-205 211 0
-206 211 0
-207 211 0
-208 211 0
-209 211 0
212 0
213 -211 0
-213 211 0
-201 214 0
-202 214 0
-203 214 0
-204 214 0
-205 214 0
-206 214 0
-207 214 0
-208 214 0
-209 214 0
215 0
216 -214 0
-216 214 0
-202 217 0
-203 217 0
-204 217 0
-205 217 0
-206 217 0
-207 217 0
-208 217 0
-209 217 0
218 0
219 -217 0
-219 217 0
-203 220 0
-204 220 0
-205 220 0
-206 220 0
-207 220 0
-208 220 0
-209 220 0
221 0
222 -220 0
-222 220 0
-204 223 0
-205 223 0
-206 223 0
-207 223 0
-208 223 0
-209 223 0
224 0
225 -223 0
-225 223 0
226 -223 0
-226 223 0
227 -223 0
-227 223 0
228 -223 0
-228 223 0
229 -223 0
-229 223 0
230 -223 0
-230 223 0
231 -232 0
-233 231 0
-234 231 0
231 -235 0
-236 231 0
-237 231 0
231 -238 0
231 -239 0
-240 231 0
231 -241 0
-242 231 0
-243 231 0
231 -244 0
231 -245 0
-246 231 0
247 0
7 -231 0
-7 231 0
-233 248 0
-234 248 0
-235 248 0
-236 248 0
-237 248 0
-238 248 0
-239 248 0
-240 248 0
-241 248 0
-242 248 0
-243 248 0
-244 248 0
-245 248 0
-246 248 0
249 0
250 -248 0
-250 248 0
-234 251 0
-235 251 0
-236 251 0
-237 251 0
-238 251 0
-239 251 0
-240 251 0
-241 251 0
-242 251 0
-243 251 0
-244 251 0
-245 251 0
-246 251 0
252 0
253 -251 0
-253 251 0
-235 254 0
-236 254 0
-237 254 0
-238 254 0
-239 254 0
-240 254 0
-241 254 0
-242 254 0
-243 254 0
-244 254 0
-245 254 0
-246 254 0
255 0
256 -254 0
-256 254 0
-236 257 0
-237 257 0
-238 257 0
-239 257 0
-240 257 0
-241 257 0
-242 257 0
-243 257 0
-244 257 0
-245 257 0
-246 257 0
258 0
259 -257 0
-259 257 0
-237 260 0
-238 260 0
-239 260 0
-240 260 0
-241 260 0
-242 260 0
-243 260 0
-244 260 0
-245 260 0
-246 260 0
261 0
262 -260 0
-262 260 0
-238 263 0
-239 263 0
-240 263 0
-241 263 0
-242 263 0
-243 263 0
-244 263 0
-245 263 0
-246 263 0
264 0
265 -263 0
-265 263 0
-239 266 0
-240 266 0
-241 266 0
-242 266 0
-243 266 0
-244 266 0
-245 266 0
-246 266 0
267 0
268 -266 0
-268 266 0
-240 269 0
-241 269 0
-242 269 0
-243 269 0
-244 269 0
-245 269 0
-246 269 0
270 0
271 -269 0
-271 269 0
272 -269 0
-272 269 0
273 -269 0
-273 269 0
274 -269 0
-274 269 0
275 -269 0
-275 269 0
276 -269 0
-276 269 0
277 -269 0
-277 269 0
-278 279 0
279 -280 0
279 -281 0
-282 279 0
279 -283 0
279 -284 0
279 -285 0
279 -286 0
-287 279 0
-288 279 0
279 -289 0
290 0
8 -279 0
-8 279 0
-280 291 0
-281 291 0
-282 291 0
-283 291 0
-284 291 0
-285 291 0
-286 291 0
-287 291 0
-288 291 0
-289 291 0
292 0
293 -291 0
-293 291 0
-281 294 0
-282 294 0
-283 294 0
-284 294 0
-285 294 0
-286 294 0
-287 294 0
-288 294 0
-289 294 0
295 0
296 -294 0
-296 294 0
-282 297 0
-283 297 0
-284 297 0
-285 297 0
-286 297 0
-287 297 0
-288 297 0
-289 297 0
298 0
299 -297 0
-299 297 0
-283 300 0
-284 300 0
-285 300 0
-286 300 0
-287 300 0
-288 300 0
-289 300 0
301 0
302 -300 0
-302 300 0
303 -300 0
-303 300 0
304 -300 0
-304 300 0
305 -300 0
-305 300 0
306 -300 0
-306 300 0
307 -300 0
-307 300 0
308 -300 0
-308 300 0
-309 310 0
-311 310 0
-312 310 0
-313 310 0
-314 310 0
310 -315 0
-316 310 0
310 -317 0
-318 310 0
310 -319 0
-320 310 0
-321 310 0
310 -322 0
310 -323 0
324 0
9 -310 0
-9 310 0
-311 325 0
-312 325 0
-313 325 0
-314 325 0
-315 325 0
-316 325 0
-317 325 0
-318 325 0
-319 325 0
-320 325 0
-321 325 0
-322 325 0
-323 325 0
326 0
327 -325 0
-327 325 0
-312 328 0
-313 328 0
-314 328 0
-315 328 0
-316 328 0
-317 328 0
-318 328 0
-319 328 0
-320 328 0
-321 328 0
-322 328 0
-323 328 0
329 0
330 -328 0
-330 328 0
-313 331 0
-314 331 0
-315 331 0
-316 331 0
-317 331 0
-318 331 0
-319 331 0
-320 331 0
-321 331 0
-322 331 0
-323 331 0
332 0
333 -331 0
-333 331 0
-314 334 0
-315 334 0
-316 334 0
-317 334 0
-318 334 0
-319 334 0
-320 334 0
-321 334 0
-322 334 0
-323 334 0
335 0
336 -334 0
-336 334 0
-315 337 0
-316 337 0
-317 337 0
-318 337 0
-319 337 0
-320 337 0
-321 337 0
-322 337 0
-323 337 0
338 0
339 -337 0
-339 337 0
-316 340 0
-317 340 0
-318 340 0
-319 340 0
-320 340 0
-321 340 0
-322 340 0
-323 340 0
341 0
342 -340 0
-342 340 0
-317 343 0
-318 343 0
-319 343 0
-320 343 0
-321 343 0
-322 343 0
-323 343 0
344 0
345 -343 0
-345 343 0
346 -343 0
-346 343 0
347 -343 0
-347 343 0
348 -343 0
-348 343 0
349 -343 0
-349 343 0
350 -343 0
-350 343 0
351 -343 0
-351 343 0
352 -353 0
-354 352 0
352 -355 0
-356 352 0
352 -357 0
-358 352 0
352 -359 0
-360 352 0
352 -361 0
352 -362 0
352 -363 0
-364 352 0
365 0
10 -352 0
-10 352 0
-354 366 0
-355 366 0
-356 366 0
-357 366 0
-358 366 0
-359 366 0
-360 366 0
-361 366 0
-362 366 0
-363 366 0
-364 366 0
367 0
368 -366 0
-368 366 0
-355 369 0
-356 369 0
-357 369 0
-358 369 0
-359 369 0
-360 369 0
-361 369 0
-362 369 0
-363 369 0
-364 369 0
370 0
371 -369 0
-371 369 0
-356 372 0
-357 372 0
-358 372 0
-359 372 0
-360 372 0
-361 372 0
-362 372 0
-363 372 0
-364 372 0
373 0
374 -372 0
-374 372 0
-357 375 0
-358 375 0
-359 375 0
-360 375 0
-361 375 0
-362 375 0
-363 375 0
-364 375 0
376 0
377 -375 0
-377 375 0
-358 378 0
-359 378 0
-360 378 0
-361 378 0
-362 378 0
-363 378 0
-364 378 0
379 0
380 -378 0
-380 378 0
381 -378 0
-381 378 0
382 -378 0
-382 378 0
383 -378 0
-383 378 0
384 -378 0
-384 378 0
385 -378 0
-385 378 0
386 -378 0
-386 378 0
11 -387 0
-11 387 0
12 -388 0
-12 388 0
13 -389 0
-13 389 0
14 -390 0
-14 390 0
15 -391 0
-15 391 0
16 -392 0
-16 392 0
17 -393 0
-17 393 0
18 -394 0
-18 394 0
19 -395 0
-19 395 0
20 -396 0
-20 396 0
-397 -21 0
-397 -23 0
-397 -24 0
-397 -25 0
-397 -26 0
27 -397 0
28 -397 0
-397 -29 0
-397 -30 0
31 -397 0
32 -397 0
33 -397 0
-397 -34 0
-397 -35 0
63 -397 0
-397 -64 0
-397 -65 0
66 -397 0
-397 -67 0
68 -397 0
69 -397 0
70 -397 0
71 -397 0
-397 -72 0
-397 -91 0
-397 -93 0
-397 -94 0
-397 -95 0
-397 -96 0
97 -397 0
-397 -98 0
-397 -99 0
-397 -100 0
-397 -101 0
102 -397 0
103 -397 0
-397 -124 0
-397 -126 0
127 -397 0
-397 -128 0
-397 -129 0
130 -397 0
-397 -131 0
132 -397 0
-397 -133 0
-397 -134 0
135 -397 0
136 -397 0
137 -397 0
138 -397 0
-397 -167 0
-397 -169 0
-397 -170 0
171 -397 0
-397 -172 0
173 -397 0
174 -397 0
-397 -175 0
176 -397 0
-397 -177 0
-397 -178 0
-397 -198 0
-397 -200 0
-397 -201 0
-397 -202 0
-397 -203 0
204 -397 0
-397 -205 0
-397 -206 0
-397 -207 0
208 -397 0
209 -397 0
232 -397 0
-397 -233 0
-397 -234 0
235 -397 0
-397 -236 0
-397 -237 0
238 -397 0
239 -397 0
-397 -240 0
241 -397 0
-397 -242 0
-397 -243 0
244 -397 0
245 -397 0
-397 -246 0
-397 -278 0
280 -397 0
281 -397 0
-397 -282 0
283 -397 0
284 -397 0
285 -397 0
286 -397 0
-397 -287 0
-397 -288 0
289 -397 0
-397 -309 0
-397 -311 0
-397 -312 0
-397 -313 0
-397 -314 0
315 -397 0
-397 -316 0
317 -397 0
-397 -318 0
319 -397 0
-397 -320 0
-397 -321 0
322 -397 0
323 -397 0
353 -397 0
-397 -354 0
355 -397 0
-397 -356 0
357 -397 0
-397 -358 0
359 -397 0
-397 -360 0
361 -397 0
362 -397 0
363 -397 0
-397 -364 0
-397 -387 0
-397 -388 0
-397 -389 0
-397 -390 0
-397 -391 0
-397 -392 0
-397 -393 0
-397 -394 0
-397 -395 0
-397 -396 0
397 0
-398 0
-399 0
-400 0
-401 0
-402 0
-403 0
-404 0
-405 0
